c SAT problem
p wcnf 215 779
1 -60 3120 0
1 -60 -3135 0
1 75 -76 0
1 -75 3150 0
1 -90 3075 0
1 -90 3150 0
1 -90 -3060 0
1 105 106 0
1 -105 -3090 0
1 105 90 0
1 -105 3165 0
1 3120 -196 0
1 3120 -75 0
1 3120 181 0
1 3120 120 0
1 -3120 90 0
1 3120 3135 0
1 3135 -196 0
1 -3135 -135 0
1 3135 181 0
1 3135 -90 0
1 3150 196 0
1 3150 -75 0
1 -3150 -151 0
1 3150 121 0
1 -3150 60 0
1 -3165 -136 0
1 -3165 105 0
1 -3165 -90 0
1 120 3120 0
1 -120 -3060 0
1 -150 -3075 0
1 150 165 0
1 150 -3030 0
1 -150 3135 0
1 -3060 -240 0
1 3060 -255 0
1 -3075 3076 0
1 3075 -180 0
1 3075 150 0
1 -3075 90 0
1 -3090 -3105 0
1 3090 196 0
1 -3090 -165 0
1 3090 -240 0
1 -3090 -211 0
1 3090 181 0
1 -3090 -150 0
1 3090 120 0
1 3090 90 0
1 3105 226 0
1 -3105 -3106 0
1 -3105 -150 0
1 -180 -181 0
1 -180 -3000 0
1 195 3075 0
1 195 196 0
1 195 -3060 0
1 210 225 0
1 210 3075 0
1 -210 211 0
1 -225 -3000 0
1 3000 -225 0
1 3000 -300 0
1 -3000 -180 0
1 3000 150 0
1 -3015 300 0
1 3015 -150 0
1 3015 -315 0
1 -3030 -300 0
1 -3030 -240 0
1 -3045 225 0
1 3045 -270 0
1 61 -3345 0
1 -61 -3315 0
1 -61 -60 0
1 -61 62 0
1 -76 77 0
1 91 -3330 0
1 91 3270 0
1 -91 -3240 0
1 91 3345 0
1 91 -90 0
1 106 3330 0
1 106 3300 0
1 106 91 0
1 3300 197 0
1 -3300 -182 0
1 -3315 -3300 0
1 -3315 197 0
1 -3330 197 0
1 -3330 -137 0
1 3330 76 0
1 3330 -122 0
1 -3345 137 0
1 -3345 76 0
1 -3345 -152 0
1 -3345 122 0
1 121 -3240 0
1 -121 -3285 0
1 121 -120 0
1 121 -3165 0
1 136 -137 0
1 -136 -3150 0
1 -151 -3300 0
1 151 3210 0
1 -151 -3315 0
1 151 -3285 0
1 151 -150 0
1 -166 -3255 0
1 166 -3270 0
1 -166 3150 0
1 -166 -151 0
1 166 -3225 0
1 3240 -3255 0
1 3240 -151 0
1 3240 -121 0
1 3240 -91 0
1 -3255 -256 0
1 -3255 196 0
1 3255 211 0
1 3255 -151 0
1 -3270 227 0
1 3270 197 0
1 3270 3271 0
1 -3270 -106 0
1 3270 -151 0
1 3270 121 0
1 -3285 227 0
1 3285 -197 0
1 -3285 -182 0
1 3285 -151 0
1 3285 91 0
1 181 -3105 0
1 181 196 0
1 -181 -3240 0
1 -181 3210 0
1 -181 3165 0
1 -196 -195 0
1 -196 3090 0
1 196 -3165 0
1 196 -3135 0
1 211 -3136 0
1 -211 226 0
1 211 -3240 0
1 211 -3151 0
1 -211 3121 0
1 -211 210 0
1 211 -3225 0
1 -211 -3166 0
1 226 -225 0
1 226 -3121 0
1 -226 3225 0
1 -226 3195 0
1 -3180 -196 0
1 -3180 166 0
1 3180 301 0
1 -3180 -240 0
1 -3180 -211 0
1 3180 151 0
1 3180 255 0
1 3195 3180 0
1 -3195 -270 0
1 3195 240 0
1 3195 -3196 0
1 3195 -211 0
1 3195 -316 0
1 3210 166 0
1 -3225 -226 0
1 -3225 196 0
1 -3225 -166 0
1 -3225 -3210 0
1 -3225 301 0
1 -3225 -271 0
1 -3225 3226 0
1 3225 -286 0
1 240 -3105 0
1 240 3075 0
1 240 3151 0
1 -240 3090 0
1 240 3060 0
1 -240 255 0
1 255 256 0
1 255 -3136 0
1 255 -3180 0
1 255 -3151 0
1 255 -240 0
1 -255 -3060 0
1 255 3195 0
1 270 3076 0
1 -270 3045 0
1 270 -3030 0
1 270 3195 0
1 -285 3091 0
1 285 3030 0
1 3121 -226 0
1 3121 361 0
1 -3121 300 0
1 3121 -270 0
1 3121 3122 0
1 -3121 211 0
1 -3121 315 0
1 3121 -285 0
1 -3136 -240 0
1 3136 3121 0
1 3136 211 0
1 3151 226 0
1 -3151 -331 0
1 -3151 3152 0
1 -3151 -211 0
1 3151 316 0
1 -3151 3166 0
1 -3166 226 0
1 -3166 -316 0
1 3166 285 0
1 -3166 -255 0
1 -300 -3015 0
1 300 3091 0
1 -315 3136 0
1 -315 -3045 0
1 315 -3015 0
1 330 -3136 0
1 -330 -3106 0
1 330 3121 0
1 -330 -3061 0
1 330 -3031 0
1 345 3106 0
1 345 3046 0
1 -345 -3016 0
1 345 -3121 0
1 -3061 390 0
1 -3061 -360 0
1 3061 -330 0
1 -3061 -435 0
1 3061 -405 0
1 -3061 -3062 0
1 3061 285 0
1 -3076 -390 0
1 3076 -330 0
1 3076 -270 0
1 -3091 3106 0
1 -3091 435 0
1 -3091 -315 0
1 3106 391 0
1 -3106 -270 0
1 -3106 376 0
1 -3106 315 0
1 360 3001 0
1 375 -3076 0
1 -375 -3016 0
1 -390 405 0
1 -390 -3061 0
1 390 3001 0
1 -405 3076 0
1 405 -3016 0
1 -405 3061 0
1 405 406 0
1 3001 -480 0
1 3001 -360 0
1 3001 3016 0
1 -3001 -375 0
1 -3001 -345 0
1 -3016 -360 0
1 -3031 -450 0
1 3031 390 0
1 -3031 -3046 0
1 -3031 360 0
1 3031 -3030 0
1 3046 3047 0
1 -3046 330 0
1 3046 405 0
1 62 -3480 0
1 77 -3510 0
1 92 3525 0
1 -92 -3465 0
1 -92 -3510 0
1 92 3480 0
1 -92 3450 0
1 92 91 0
1 -107 3495 0
1 107 106 0
1 -107 -3420 0
1 3480 152 0
1 -3480 -122 0
1 -3480 -92 0
1 -3495 137 0
1 -3495 77 0
1 -3495 -92 0
1 3495 -62 0
1 3510 3511 0
1 -3510 107 0
1 -3525 -107 0
1 3525 -92 0
1 122 -3495 0
1 -122 -3345 0
1 137 -3330 0
1 -137 3435 0
1 -137 3345 0
1 152 -3495 0
1 -152 -3345 0
1 152 151 0
1 -167 -3495 0
1 -167 3465 0
1 -167 -3420 0
1 -3420 -197 0
1 -3420 -137 0
1 3420 182 0
1 -3435 167 0
1 -3435 -212 0
1 3435 -182 0
1 -3435 3420 0
1 3435 122 0
1 3450 -167 0
1 -3450 137 0
1 3450 -92 0
1 3465 137 0
1 3465 -3450 0
1 3465 152 0
1 3465 122 0
1 182 3360 0
1 -182 -3330 0
1 -182 -3300 0
1 182 3375 0
1 182 3345 0
1 -182 3315 0
1 -197 -3300 0
1 197 -3435 0
1 197 3375 0
1 197 3345 0
1 -197 3315 0
1 197 -3390 0
1 212 -3360 0
1 -212 -3270 0
1 -212 -3375 0
1 -212 -3420 0
1 227 -226 0
1 227 -3270 0
1 227 3375 0
1 227 212 0
1 227 -3316 0
1 -3360 167 0
1 -3360 302 0
1 -3360 -182 0
1 -3360 -152 0
1 -3375 256 0
1 -3375 -167 0
1 3375 -212 0
1 -3375 152 0
1 3390 -227 0
1 -3390 -197 0
1 3390 3391 0
1 -3390 -167 0
1 3390 -302 0
1 3390 -287 0
1 -3405 -227 0
1 3405 -242 0
1 3405 152 0
1 -3405 -287 0
1 -241 256 0
1 -241 3360 0
1 241 3375 0
1 241 3316 0
1 241 -3285 0
1 256 -3360 0
1 -256 -3375 0
1 256 3346 0
1 -256 3316 0
1 -256 -3285 0
1 -256 3255 0
1 256 -3225 0
1 -256 255 0
1 -271 3241 0
1 -271 -3375 0
1 -271 -3256 0
1 -286 3360 0
1 286 -3331 0
1 -286 -3241 0
1 -286 -3210 0
1 -286 -271 0
1 -286 -3346 0
1 -286 3286 0
1 -286 285 0
1 -286 -287 0
1 3301 256 0
1 3301 227 0
1 -3301 3300 0
1 -3301 -3302 0
1 3301 301 0
1 -3301 212 0
1 -3301 -377 0
1 3301 -346 0
1 3301 -286 0
1 3316 -256 0
1 -3316 -227 0
1 3316 3301 0
1 3316 362 0
1 -3331 256 0
1 3331 3330 0
1 3331 -227 0
1 3331 362 0
1 3331 -302 0
1 -3331 -271 0
1 -3331 241 0
1 3331 -3346 0
1 -3331 -347 0
1 -3331 286 0
1 -3346 -227 0
1 3346 271 0
1 -3346 3345 0
1 3346 3347 0
1 3346 347 0
1 -301 3271 0
1 -301 3151 0
1 301 3316 0
1 301 -316 0
1 301 -3166 0
1 -316 3151 0
1 316 -3316 0
1 -316 -3256 0
1 -316 -3166 0
1 331 -3211 0
1 346 -3271 0
1 -346 -3286 0
1 -346 -3256 0
1 -3241 -3256 0
1 3241 421 0
1 -3241 -436 0
1 3241 -406 0
1 3241 -316 0
1 -3256 391 0
1 -3256 361 0
1 -3256 -406 0
1 3256 376 0
1 -3256 -3257 0
1 3271 392 0
1 -3271 -3272 0
1 -3271 271 0
1 3271 -3286 0
1 3271 407 0
1 -3286 -3287 0
1 3286 362 0
1 -3286 -3285 0
1 -3286 346 0
1 361 3241 0
1 361 3091 0
1 376 -3136 0
1 376 3241 0
1 376 -3121 0
1 -376 -3226 0
1 -376 3166 0
1 391 -3241 0
1 -391 -3181 0
1 391 3152 0
1 -391 3256 0
1 -391 3167 0
1 -406 -3106 0
1 406 -391 0
1 -406 -3211 0
1 -406 -3122 0
1 -3181 -450 0
1 -3181 420 0
1 -3181 -496 0
1 3196 406 0
1 -3196 346 0
1 3211 481 0
1 3211 -3226 0
1 -3211 -466 0
1 -3211 436 0
1 -3211 -346 0
1 3226 391 0
1 3226 496 0
1 -3226 -466 0
1 3226 406 0
1 3226 -376 0
1 3226 3225 0
1 -3226 3227 0
1 420 3076 0
1 -420 -3122 0
1 420 -3061 0
1 -435 -3181 0
1 435 3152 0
1 -450 3122 0
1 -450 -3062 0
1 -450 -3196 0
1 450 3167 0
1 465 -3107 0
1 -465 3077 0
1 -465 3181 0
1 -465 3092 0
1 -465 -3196 0
1 3122 -3137 0
1 -3122 420 0
1 3122 556 0
1 3122 -495 0
1 3122 -541 0
1 3122 510 0
1 3137 -556 0
1 -3152 -450 0
1 3152 -420 0
1 -3152 556 0
1 3152 -526 0
1 -3152 3151 0
1 -3152 465 0
1 -3152 -435 0
1 -3152 -541 0
1 3167 -435 0
1 3167 541 0
1 480 3046 0
1 480 -3122 0
1 -480 -3001 0
1 -495 -480 0
1 495 -3107 0
1 -495 -3122 0
1 -495 3092 0
1 495 -3031 0
1 -495 -3001 0
1 -510 -3137 0
1 -510 -3107 0
1 510 3017 0
1 -510 3032 0
1 -525 3077 0
1 525 -3017 0
1 -3062 480 0
1 3062 450 0
1 -3062 -465 0
1 -3077 465 0
1 3077 -3062 0
1 -3077 510 0
1 3092 465 0
1 3092 541 0
1 3107 -586 0
1 3107 525 0
1 -3107 -3092 0
1 -3107 -541 0
1 -540 -3017 0
1 -555 3077 0
1 -555 -556 0
1 -555 3002 0
1 585 -3047 0
1 585 -3017 0
1 585 -586 0
1 -585 -3062 0
1 3002 585 0
1 3017 -585 0
1 3032 -585 0
1 3032 540 0
1 3047 -3046 0
1 -3047 585 0
1 -3047 -555 0
1 -3047 -3032 0
1 -3047 570 0
1 -242 241 0
1 242 -3511 0
1 257 -3526 0
1 -257 -3511 0
1 257 3390 0
1 272 -287 0
1 287 3466 0
1 -287 -3436 0
1 -287 -3405 0
1 3481 332 0
1 3496 302 0
1 3496 -317 0
1 3511 257 0
1 -302 3436 0
1 -302 301 0
1 302 3375 0
1 -302 3421 0
1 -302 317 0
1 -302 -3390 0
1 317 -3390 0
1 -317 3375 0
1 -317 316 0
1 -332 3361 0
1 332 3331 0
1 -332 3496 0
1 332 3346 0
1 347 -3376 0
1 -3421 422 0
1 -3421 392 0
1 3421 437 0
1 -3421 407 0
1 -3421 377 0
1 -3421 -317 0
1 -3421 -287 0
1 3436 -392 0
1 -3436 -437 0
1 3436 -377 0
1 3436 317 0
1 -3451 -422 0
1 -3451 302 0
1 -3451 -287 0
1 3466 -332 0
1 -3466 -437 0
1 3466 287 0
1 362 3361 0
1 362 -3331 0
1 -362 3271 0
1 -362 361 0
1 -362 3376 0
1 -362 -377 0
1 -362 -3391 0
1 377 -362 0
1 -377 3436 0
1 -377 -3316 0
1 -377 3421 0
1 -392 3302 0
1 -392 -3376 0
1 -392 3286 0
1 392 407 0
1 392 -3421 0
1 -407 3361 0
1 407 3302 0
1 407 -3406 0
1 -407 3347 0
1 407 -3317 0
1 -3361 451 0
1 -3361 3362 0
1 3361 -421 0
1 -3361 -332 0
1 3361 -3376 0
1 3361 -497 0
1 -3376 -482 0
1 3376 392 0
1 3376 332 0
1 -3391 -422 0
1 3391 497 0
1 -3391 347 0
1 3406 482 0
1 -3406 -362 0
1 3406 -497 0
1 3406 467 0
1 3406 -377 0
1 -3406 347 0
1 421 3332 0
1 -421 -3271 0
1 421 3302 0
1 -421 -3241 0
1 -421 -3376 0
1 436 421 0
1 -436 3347 0
1 -451 -3332 0
1 451 3376 0
1 466 -3361 0
1 -466 -3332 0
1 466 3302 0
1 466 -3242 0
1 -466 3376 0
1 466 -3257 0
1 3302 -3301 0
1 -3302 -436 0
1 -3317 -421 0
1 -3317 -557 0
1 3317 3316 0
1 -3332 -451 0
1 3332 421 0
1 3332 -3347 0
1 -3347 -512 0
1 -3347 482 0
1 -481 3242 0
1 -481 -3211 0
1 -481 496 0
1 -481 3287 0
1 496 3181 0
1 496 3287 0
1 496 -3257 0
1 -511 512 0
1 511 -526 0
1 -511 3197 0
1 526 -3302 0
1 526 -525 0
1 -526 -3182 0
1 526 3287 0
1 526 -3257 0
1 -526 -3227 0
1 3242 3241 0
1 3257 451 0
1 -3257 556 0
1 3257 511 0
1 -3272 481 0
1 3272 587 0
1 3272 526 0
1 -3272 -3287 0
1 -3272 511 0
1 -3287 451 0
1 3287 -3272 0
1 3287 587 0
1 -3287 3286 0
1 -541 3242 0
1 541 556 0
1 541 -3257 0
1 541 -540 0
1 -541 3167 0
1 -556 -3107 0
1 -556 3242 0
1 -556 -557 0
1 -556 -3182 0
1 556 -3122 0
1 556 -3257 0
1 -571 3212 0
1 -571 3182 0
1 -571 3092 0
1 571 -570 0
1 -571 -3227 0
1 586 3107 0
1 586 587 0
1 586 3182 0
1 -3182 -586 0
1 3182 -526 0
1 -3182 571 0
1 3182 -541 0
1 -3197 -586 0
1 -3197 3182 0
1 -3212 -526 0
1 -3227 -586 0
1 3227 -526 0
1 -422 421 0
1 -422 -3527 0
1 422 -437 0
1 -422 -3451 0
1 422 3421 0
1 -437 3512 0
1 437 -3482 0
1 -452 3437 0
1 -452 -3422 0
1 452 -3391 0
1 467 -3467 0
1 -467 -3437 0
1 467 -3482 0
1 -467 -3452 0
1 467 3391 0
1 -3482 512 0
1 3482 3497 0
1 3482 3481 0
1 3497 452 0
1 -3497 -422 0
1 3497 3496 0
1 3497 467 0
1 -3497 437 0
1 -3512 -467 0
1 3512 437 0
1 -3527 452 0
1 3527 -422 0
1 3527 437 0
1 482 -3361 0
1 -482 497 0
1 497 3437 0
1 -497 -496 0
1 497 -3376 0
1 497 3347 0
1 497 -3452 0
1 -512 -3332 0
1 -512 -3407 0
1 -512 3347 0
1 -527 -3332 0
1 527 -3377 0
1 527 3347 0
1 -3422 -452 0
1 3422 -467 0
1 3422 572 0
1 3422 -3421 0
1 -3452 -3451 0
1 -3467 -452 0
1 -3467 -527 0
1 -3467 467 0
1 557 -3332 0
1 557 3437 0
1 557 3347 0
1 557 3317 0
1 -572 -3362 0
1 -572 -3437 0
1 -587 3392 0
1 587 3437 0
1 -587 3377 0
1 -587 -3422 0
1 3362 -572 0
1 -3377 3362 0
1 -3377 587 0
1 -3407 -572 0
